TSPLib/instances/tsp_25.tsp
NAME: tsp_25
TYPE: TSP
DIMENSION: 25
EDGE_WEIGHT_TYPE: EUC_2D
NODE_COORD_SECTION
1 0 83
2 60 315
3 36 11
4 22 241
5 88 318
6 75 197
7 48 200
8 31 318
9 41 104
10 37 76
11 90 318
12 31 348
13 43 371
14 21 207
15 48 76
16 29 204
17 83 371
18 62 379
19 56 14
20 7 84
21 24 246
22 30 299
23 54 168
24 23 80
25 43 362
EOF
